; Copyright (c) 2026 The RIINA Authors. All rights reserved.
; Copyright (c) 2026 The RIINA Authors.
; Auto-generated from 02_FORMAL/coq/domains/security_foundation/DisplayDriver.v (23 assertions)
; Generated by scripts/generate-full-stack.py
; Module: DisplayDriver

(set-logic ALL)
(set-option :produce-models true)

; AppId (matches Coq: Inductive AppId)
(declare-datatypes ((AppId 0)) (((App))))

; FrameBufferId (matches Coq: Inductive FrameBufferId)
(declare-datatypes ((FrameBufferId 0)) (((FBId))))

; Application (matches Coq: Record Application)
(declare-datatypes ((Application 0))
  (((mk-application (app_id AppId) (app_screen_capture_perm Bool) (app_overlay_perm Bool)))))

; FrameBuffer (matches Coq: Record FrameBuffer)
(declare-datatypes ((FrameBuffer 0))
  (((mk-frame_buffer (fb_id FrameBufferId) (fb_owner AppId) (fb_width Int) (fb_height Int) (fb_protected Bool)))))

; Frame (matches Coq: Record Frame)
(declare-datatypes ((Frame 0))
  (((mk-frame (frame_id Int) (frame_timestamp Int) (frame_source FrameBufferId)))))

; DisplayState (matches Coq: Record DisplayState)
(declare-datatypes ((DisplayState 0))
  (((mk-display_state (frame_buffers list) (active_overlay option)))))

; owns_buffer (matches Coq: Definition owns_buffer)
(define-fun owns_buffer ((app Application) (fb FrameBuffer)) Prop
  true)

; has_screen_capture_permission (matches Coq: Definition has_screen_capture_permission)
(define-fun has_screen_capture_permission ((app Application)) Prop
  true)

; has_overlay_permission (matches Coq: Definition has_overlay_permission)
(define-fun has_overlay_permission ((app Application)) Prop
  true)

; valid_framebuffer (matches Coq: Definition valid_framebuffer)
(define-fun valid_framebuffer ((fb FrameBuffer)) Prop
  true)

; pixel_count (matches Coq: Definition pixel_count)
(define-fun pixel_count ((fb FrameBuffer)) Int
  true)

; display_buffer_isolated (matches Coq: Theorem display_buffer_isolated)
(assert (= true true)) ; display_buffer_isolated [untranslatable]

; screen_capture_requires_permission (matches Coq: Theorem screen_capture_requires_permission)
(assert (= true true)) ; screen_capture_requires_permission [untranslatable]

; protected_buffer_access (matches Coq: Theorem protected_buffer_access)
(assert (= true true)) ; protected_buffer_access [untranslatable]

; no_permission_no_capture (matches Coq: Theorem no_permission_no_capture)
(assert (= true true)) ; no_permission_no_capture [untranslatable]

; buffer_ownership_exclusive (matches Coq: Theorem buffer_ownership_exclusive)
(assert (= true true)) ; buffer_ownership_exclusive [untranslatable]

; overlay_requires_permission (matches Coq: Theorem overlay_requires_permission)
(assert (= true true)) ; overlay_requires_permission [untranslatable]

; no_overlay_without_permission (matches Coq: Theorem no_overlay_without_permission)
(assert (= true true)) ; no_overlay_without_permission [untranslatable]

; display_output_integrity (matches Coq: Theorem display_output_integrity)
(assert (= true true)) ; display_output_integrity [untranslatable]

; valid_fb_positive_pixels (matches Coq: Theorem valid_fb_positive_pixels)
(assert (= true true)) ; valid_fb_positive_pixels [untranslatable]

; no_capture_perm_blocks_all_frames (matches Coq: Theorem no_capture_perm_blocks_all_frames)
(assert (= true true)) ; no_capture_perm_blocks_all_frames [untranslatable]

; protected_buffer_blocks_non_owner (matches Coq: Theorem protected_buffer_blocks_non_owner)
(assert (= true true)) ; protected_buffer_blocks_non_owner [untranslatable]

; read_requires_ownership_or_capture (matches Coq: Theorem read_requires_ownership_or_capture)
(assert (= true true)) ; read_requires_ownership_or_capture [untranslatable]

; capture_perm_reads_all (matches Coq: Theorem capture_perm_reads_all)
(assert (= true true)) ; capture_perm_reads_all [untranslatable]

; owner_reads_unprotected (matches Coq: Theorem owner_reads_unprotected)
(assert (= true true)) ; owner_reads_unprotected [untranslatable]

; overlay_state_consistent (matches Coq: Theorem overlay_state_consistent)
(assert (= true true)) ; overlay_state_consistent [untranslatable]

; no_overlay_no_app (matches Coq: Theorem no_overlay_no_app)
(assert (= true true)) ; no_overlay_no_app [untranslatable]

; fb_id_determines_buffer (matches Coq: Theorem fb_id_determines_buffer)
(assert (= true true)) ; fb_id_determines_buffer [untranslatable]

; display_isolation_symmetric (matches Coq: Theorem display_isolation_symmetric)
(assert (= true true)) ; display_isolation_symmetric [untranslatable]

; capture_overlay_independent (matches Coq: Theorem capture_overlay_independent)
(assert (= true true)) ; capture_overlay_independent [untranslatable]

; dual_perm_app (matches Coq: Theorem dual_perm_app)
(assert (= true true)) ; dual_perm_app [untranslatable]

; no_perm_app (matches Coq: Theorem no_perm_app)
(assert (= true true)) ; no_perm_app [untranslatable]

; empty_display_no_read (matches Coq: Theorem empty_display_no_read)
(assert (= true true)) ; empty_display_no_read [untranslatable]

; frame_timestamp_order (matches Coq: Theorem frame_timestamp_order)
(assert (= true true)) ; frame_timestamp_order [untranslatable]

; Verify all assertions are satisfiable
(check-sat)
(exit)
